Minimize
 obj:
  0.05 gI_0 - 0.045 gE_0 + 0.00001 gI_0 + 0.00001 gE_0 + 0.00001 c_0 + 0.00001 d_0
+ 0.0375 gI_1 - 0.0325 gE_1 + 0.00001 gI_1 + 0.00001 gE_1 + 0.00001 c_1 + 0.00001 d_1
+ 0.025 gI_2 - 0.02 gE_2 + 0.00001 gI_2 + 0.00001 gE_2 + 0.00001 c_2 + 0.00001 d_2
+ 0.045 gI_3 - 0.04 gE_3 + 0.00001 gI_3 + 0.00001 gE_3 + 0.00001 c_3 + 0.00001 d_3
+ 0.0625 gI_4 - 0.0575 gE_4 + 0.00001 gI_4 + 0.00001 gE_4 + 0.00001 c_4 + 0.00001 d_4
- 0.10 s_4

Subject To
 bal_0: gI_0 - gE_0 + d_0 - c_0 = 2.0
 bal_1: gI_1 - gE_1 + d_1 - c_1 = 1.0
 bal_2: gI_2 - gE_2 + d_2 - c_2 = 0.5
 bal_3: gI_3 - gE_3 + d_3 - c_3 = 1.5
 bal_4: gI_4 - gE_4 + d_4 - c_4 = 2.5

 soc_0: s_0 - 0.2375 c_0 + 0.263157895 d_0 = 2.5
 soc_1: s_1 - s_0 - 0.2375 c_1 + 0.263157895 d_1 = 0
 soc_2: s_2 - s_1 - 0.2375 c_2 + 0.263157895 d_2 = 0
 soc_3: s_3 - s_2 - 0.2375 c_3 + 0.263157895 d_3 = 0
 soc_4: s_4 - s_3 - 0.2375 c_4 + 0.263157895 d_4 = 0

Bounds
 0 <= gI_0 <= 10
 0 <= gI_1 <= 10
 0 <= gI_2 <= 10
 0 <= gI_3 <= 10
 0 <= gI_4 <= 10

 0 <= gE_0 <= 10
 0 <= gE_1 <= 10
 0 <= gE_2 <= 10
 0 <= gE_3 <= 10
 0 <= gE_4 <= 10

 0 <= c_0 <= 2
 0 <= c_1 <= 2
 0 <= c_2 <= 2
 0 <= c_3 <= 2
 0 <= c_4 <= 2

 0 <= d_0 <= 2
 0 <= d_1 <= 2
 0 <= d_2 <= 2
 0 <= d_3 <= 2
 0 <= d_4 <= 2

 0 <= s_0 <= 5
 0 <= s_1 <= 5
 0 <= s_2 <= 5
 0 <= s_3 <= 5
 0 <= s_4 <= 5
End
